1074576
1,92,8,42,89,31,80,56,97,75,19,4,65,66,26,70,53,88,16,22,94,79,18,24,38,99,36,84,10,90,49,6,63,72,21,74,59,17,15,11,32,45,91,98,23,60,77,62,35,86,27,12,20,57,87,9,7,55,83,34,29,46,3,43,41,71,100,14,48,52,78,96,30,39,5,37,33,13,76,95,82,50,44,2,54,40,64,69,73,68,85,81,25,51,61,58,67,28,93,47,1
